c colouring generated by benchmark framework
p edge 125 3891
v 1 12
v 2 17
v 3 0
v 4 3
v 5 10
v 6 2
v 7 4
v 8 18
v 9 0
v 10 8
v 11 14
v 12 28
v 13 24
v 14 14
v 15 6
v 16 6
v 17 13
v 18 5
v 19 24
v 20 11
v 21 11
v 22 7
v 23 16
v 24 21
v 25 9
v 26 14
v 27 14
v 28 23
v 29 4
v 30 4
v 31 13
v 32 21
v 33 9
v 34 5
v 35 7
v 36 1
v 37 10
v 38 3
v 39 16
v 40 13
v 41 17
v 42 19
v 43 25
v 44 6
v 45 2
v 46 6
v 47 25
v 48 7
v 49 6
v 50 12
v 51 1
v 52 26
v 53 3
v 54 1
v 55 29
v 56 4
v 57 2
v 58 0
v 59 20
v 60 10
v 61 8
v 62 0
v 63 5
v 64 12
v 65 3
v 66 22
v 67 22
v 68 12
v 69 2
v 70 9
v 71 19
v 72 15
v 73 11
v 74 9
v 75 26
v 76 20
v 77 8
v 78 1
v 79 2
v 80 25
v 81 14
v 82 5
v 83 8
v 84 17
v 85 23
v 86 8
v 87 15
v 88 6
v 89 4
v 90 16
v 91 18
v 92 21
v 93 27
v 94 11
v 95 16
v 96 11
v 97 15
v 98 5
v 99 0
v 100 26
v 101 7
v 102 12
v 103 4
v 104 19
v 105 10
v 106 28
v 107 9
v 108 29
v 109 24
v 110 3
v 111 23
v 112 9
v 113 5
v 114 10
v 115 0
v 116 20
v 117 14
v 118 1
v 119 15
v 120 18
v 121 26
v 122 7
v 123 9
v 124 22
v 125 13
